db/data/198301482421002140461641916278120353087.z3.out
-------------------
2500.105139649
